optimization/sol.out
solution status: optimal solution found
objective value:                             11000000
x#60517                                             1 	(obj:1000000)
x#60599                                             1 	(obj:1000000)
x#60647                                             1 	(obj:1000000)
x#62006                                             1 	(obj:1000000)
x#62333                                             1 	(obj:1000000)
x#62826                                             1 	(obj:1000000)
x#63423                                             1 	(obj:1000000)
x#63584                                             1 	(obj:1000000)
x#63758                                             1 	(obj:1000000)
x#63845                                             1 	(obj:1000000)
x#63974                                             1 	(obj:1000000)
